11 9 14 2 8 6 13 3 0 5 12 1 4 10 7
2 14 4 1 10 7 6 5 0 9 12 13 3 11 8
2 10 6 3 14 5 13 1 4 7 9 0 12 11 8
9 2 0 10 1 12 14 3 4 13 8 11 7 5 6
7 4 14 3 2 5 10 1 12 13 0 11 6 9 8
5 6 11 2 9 4 3 14 8 1 10 12 13 7 0
3 4 1 11 9 12 5 10 0 6 14 13 8 7 2
0 10 7 3 6 11 14 2 4 9 13 1 8 5 12
12 11 4 0 6 2 14 7 3 9 1 8 10 5 13
9 2 11 1 8 7 3 6 4 5 0 10 12 14 13
3 9 7 12 14 5 8 6 11 13 2 4 1 10 0
0 8 14 1 12 13 3 6 5 11 9 4 7 2 10
1 12 11 5 9 10 0 2 13 8 6 3 14 7 4
3 13 14 9 0 2 4 1 5 8 12 10 11 7 6
8 5 11 4 3 6 12 13 2 10 0 9 1 7 14 
